# 75180
param k := 5;
param n := 60;
param s := 2;
set E :=  (0,22) (1,4) (1,23) (1,51) (1,55) (2,25) (3,17) (3,21) (3,28) (4,10) (4,30) (5,15) (5,28) (5,41) (6,8) (6,34) (7,29) (8,9) (8,46) (9,24) (9,51) (10,41) (10,45) (10,48) (11,21) (11,26) (11,27) (11,29) (11,43) (12,21) (12,36) (13,35) (14,29) (14,46) (14,56) (15,33) (15,42) (16,35) (16,46) (17,21) (17,31) (17,40) (17,54) (18,33) (18,41) (18,59) (19,44) (19,51) (20,54) (22,27) (22,45) (23,50) (24,39) (25,51) (27,31) (28,34) (28,51) (28,58) (31,35) (32,56) (35,45) (35,51) (37,41) (38,40) (38,50) (39,49) (41,49) (42,52) (44,51) (46,48) (47,55) (48,57) (53,54);